(declare-const t_init Int)
(declare-const i_init Int)
(declare-const j_init Int)
(declare-const c_0 Int)
(declare-const c_1 Int)
(declare-const c_2 Int)
(declare-const c_3 Int)
(declare-const c_4 Int)
(declare-const c_5 Int)
(declare-const c_6 Int)
(declare-const c_7 Int)
(declare-const c_8 Int)
(declare-const c_9 Int)
(declare-const c_10 Int)
(declare-const c_11 Int)
(declare-const c_12 Int)
(declare-const c_13 Int)
(declare-const c_14 Int)
(declare-const c_15 Int)
(declare-const c_16 Int)
(declare-const c_17 Int)
(declare-const c_18 Int)
(declare-const c_19 Int)
(assert (< c_0 0))
(assert (and (>= (+ (* 1 c_1 ) (* (- 1) t_init ) ) 0) (>= (+ (* (- 1) c_1 ) (* 1 t_init ) ) 0) (>= (+ (* 1 c_2 ) (* (- 1) i_init ) ) 0) (>= (+ (* (- 1) c_2 ) (* 1 i_init ) ) 0) (>= (+ (* 1 c_3 ) (* (- 1) j_init ) ) 0) (>= (+ (* (- 1) c_3 ) (* 1 j_init ) ) 0) ))
(assert (forall ((t Real) (i Real) (j Real) ) (=> (and (>= (+ (* (- 1) 1) (* (- 1) c_4 ) (* (- 1) c_5 i ) (* (- 1) c_6 j ) ) 0) (>= (+ (* 1 c_1 ) (* (- 1) t ) ) 0) (>= (+ (* (- 1) c_1 ) (* 1 t ) ) 0) (>= (+ (* 1 c_2 ) (* (- 1) i ) ) 0) (>= (+ (* (- 1) c_2 ) (* 1 i ) ) 0) (>= (+ (* 1 c_3 ) (* (- 1) j ) ) 0) (>= (+ (* (- 1) c_3 ) (* 1 j ) ) 0) ) (>= (+ (* 1 c_12 ) (* 1 c_13 i ) (* 1 c_14 j ) ) 0) )))
(assert (forall ((t Real) (i Real) (j Real) ) (=> (and (>= (+ (* (- 1) 1) (* (- 1) c_4 ) (* (- 1) c_5 i ) (* (- 1) c_6 j ) ) 0) (>= (+ (* 1 c_1 ) (* (- 1) t ) ) 0) (>= (+ (* (- 1) c_1 ) (* 1 t ) ) 0) (>= (+ (* 1 c_2 ) (* (- 1) i ) ) 0) (>= (+ (* (- 1) c_2 ) (* 1 i ) ) 0) (>= (+ (* 1 c_3 ) (* (- 1) j ) ) 0) (>= (+ (* (- 1) c_3 ) (* 1 j ) ) 0) ) (>= (+ (* 1 c_16 ) (* 1 c_17 i ) (* 1 c_18 j ) ) 0) )))
(assert (forall ((t Real) (i Real) (j Real) ) (=> (and (>= (+ (* (- 1) 1) (* (- 1) c_10 j ) (* (- 1) c_8 ) (* (- 1) c_9 i ) ) 0) (>= (+ (* 1 c_1 ) (* (- 1) t ) ) 0) (>= (+ (* (- 1) c_1 ) (* 1 t ) ) 0) (>= (+ (* 1 c_2 ) (* (- 1) i ) ) 0) (>= (+ (* (- 1) c_2 ) (* 1 i ) ) 0) (>= (+ (* 1 c_3 ) (* (- 1) j ) ) 0) (>= (+ (* (- 1) c_3 ) (* 1 j ) ) 0) ) (>= (+ (* 1 c_12 ) (* 1 c_13 i ) (* 1 c_14 j ) ) 0) )))
(assert (forall ((t Real) (i Real) (j Real) ) (=> (and (>= (+ (* (- 1) 1) (* (- 1) c_10 j ) (* (- 1) c_8 ) (* (- 1) c_9 i ) ) 0) (>= (+ (* 1 c_1 ) (* (- 1) t ) ) 0) (>= (+ (* (- 1) c_1 ) (* 1 t ) ) 0) (>= (+ (* 1 c_2 ) (* (- 1) i ) ) 0) (>= (+ (* (- 1) c_2 ) (* 1 i ) ) 0) (>= (+ (* 1 c_3 ) (* (- 1) j ) ) 0) (>= (+ (* (- 1) c_3 ) (* 1 j ) ) 0) ) (>= (+ (* 1 c_16 ) (* 1 c_17 i ) (* 1 c_18 j ) ) 0) )))
(assert (forall ((t Real) (i Real) (j Real) ) (=> (and (>= (+ (* (- 1) 1) (* (- 1) c_4 ) (* (- 1) c_5 j ) (* (- 1) c_6 i ) (* (- 1) c_7 i ) ) 0) (>= (+ (* (- 1) 1) (* (- 1) i ) (* 1 j ) ) 0) (>= (+ (* (- 1) 1) (* 1 i ) ) 0) (>= (+ (* (- 1) 1) (* 1 j ) ) 0) (>= (+ (* 1 c_4 ) (* 1 c_5 i ) (* 1 c_6 j ) (* 1 c_7 t ) ) 0) (>= (+ (* 1 c_10 j ) (* 1 c_11 t ) (* 1 c_8 ) (* 1 c_9 i ) ) 0) ) (>= (+ (* 1 c_12 ) (* 1 c_13 j ) (* 1 c_14 i ) (* 1 c_15 i ) ) 0) )))
(assert (forall ((t Real) (i Real) (j Real) ) (=> (and (>= (+ (* (- 1) 1) (* (- 1) c_4 ) (* (- 1) c_5 j ) (* (- 1) c_6 i ) (* (- 1) c_7 i ) ) 0) (>= (+ (* (- 1) 1) (* (- 1) i ) (* 1 j ) ) 0) (>= (+ (* (- 1) 1) (* 1 i ) ) 0) (>= (+ (* (- 1) 1) (* 1 j ) ) 0) (>= (+ (* 1 c_4 ) (* 1 c_5 i ) (* 1 c_6 j ) (* 1 c_7 t ) ) 0) (>= (+ (* 1 c_10 j ) (* 1 c_11 t ) (* 1 c_8 ) (* 1 c_9 i ) ) 0) ) (>= (+ (* 1 c_16 ) (* 1 c_17 j ) (* 1 c_18 i ) (* 1 c_19 i ) ) 0) )))
(assert (forall ((t Real) (i Real) (j Real) ) (=> (and (>= (+ (* (- 1) 1) (* (- 1) c_10 i ) (* (- 1) c_11 i ) (* (- 1) c_8 ) (* (- 1) c_9 j ) ) 0) (>= (+ (* (- 1) 1) (* (- 1) i ) (* 1 j ) ) 0) (>= (+ (* (- 1) 1) (* 1 i ) ) 0) (>= (+ (* (- 1) 1) (* 1 j ) ) 0) (>= (+ (* 1 c_4 ) (* 1 c_5 i ) (* 1 c_6 j ) (* 1 c_7 t ) ) 0) (>= (+ (* 1 c_10 j ) (* 1 c_11 t ) (* 1 c_8 ) (* 1 c_9 i ) ) 0) ) (>= (+ (* 1 c_12 ) (* 1 c_13 j ) (* 1 c_14 i ) (* 1 c_15 i ) ) 0) )))
(assert (forall ((t Real) (i Real) (j Real) ) (=> (and (>= (+ (* (- 1) 1) (* (- 1) c_10 i ) (* (- 1) c_11 i ) (* (- 1) c_8 ) (* (- 1) c_9 j ) ) 0) (>= (+ (* (- 1) 1) (* (- 1) i ) (* 1 j ) ) 0) (>= (+ (* (- 1) 1) (* 1 i ) ) 0) (>= (+ (* (- 1) 1) (* 1 j ) ) 0) (>= (+ (* 1 c_4 ) (* 1 c_5 i ) (* 1 c_6 j ) (* 1 c_7 t ) ) 0) (>= (+ (* 1 c_10 j ) (* 1 c_11 t ) (* 1 c_8 ) (* 1 c_9 i ) ) 0) ) (>= (+ (* 1 c_16 ) (* 1 c_17 j ) (* 1 c_18 i ) (* 1 c_19 i ) ) 0) )))
(assert (forall ((t Real) (i Real) (j Real) ) (=> (and (>= (+ (* (- 1) 1) (* (- 1) c_4 ) (* (- 1) c_5 j ) (* (- 1) c_6 i ) (* (- 1) c_7 i ) ) 0) (>= (+ (* (- 1) 1) (* (- 1) i ) (* 1 j ) ) 0) (>= (+ (* (- 1) 1) (* 1 i ) ) 0) (>= (+ (* (- 1) 1) (* 1 j ) ) 0) (>= (+ (* 1 c_12 ) (* 1 c_13 i ) (* 1 c_14 j ) (* 1 c_15 t ) ) 0) (>= (+ (* 1 c_16 ) (* 1 c_17 i ) (* 1 c_18 j ) (* 1 c_19 t ) ) 0) ) (>= (+ (* 1 c_12 ) (* 1 c_13 j ) (* 1 c_14 i ) (* 1 c_15 i ) ) 0) )))
(assert (forall ((t Real) (i Real) (j Real) ) (=> (and (>= (+ (* (- 1) 1) (* (- 1) c_4 ) (* (- 1) c_5 j ) (* (- 1) c_6 i ) (* (- 1) c_7 i ) ) 0) (>= (+ (* (- 1) 1) (* (- 1) i ) (* 1 j ) ) 0) (>= (+ (* (- 1) 1) (* 1 i ) ) 0) (>= (+ (* (- 1) 1) (* 1 j ) ) 0) (>= (+ (* 1 c_12 ) (* 1 c_13 i ) (* 1 c_14 j ) (* 1 c_15 t ) ) 0) (>= (+ (* 1 c_16 ) (* 1 c_17 i ) (* 1 c_18 j ) (* 1 c_19 t ) ) 0) ) (>= (+ (* 1 c_16 ) (* 1 c_17 j ) (* 1 c_18 i ) (* 1 c_19 i ) ) 0) )))
(assert (forall ((t Real) (i Real) (j Real) ) (=> (and (>= (+ (* (- 1) 1) (* (- 1) c_10 i ) (* (- 1) c_11 i ) (* (- 1) c_8 ) (* (- 1) c_9 j ) ) 0) (>= (+ (* (- 1) 1) (* (- 1) i ) (* 1 j ) ) 0) (>= (+ (* (- 1) 1) (* 1 i ) ) 0) (>= (+ (* (- 1) 1) (* 1 j ) ) 0) (>= (+ (* 1 c_12 ) (* 1 c_13 i ) (* 1 c_14 j ) (* 1 c_15 t ) ) 0) (>= (+ (* 1 c_16 ) (* 1 c_17 i ) (* 1 c_18 j ) (* 1 c_19 t ) ) 0) ) (>= (+ (* 1 c_12 ) (* 1 c_13 j ) (* 1 c_14 i ) (* 1 c_15 i ) ) 0) )))
(assert (forall ((t Real) (i Real) (j Real) ) (=> (and (>= (+ (* (- 1) 1) (* (- 1) c_10 i ) (* (- 1) c_11 i ) (* (- 1) c_8 ) (* (- 1) c_9 j ) ) 0) (>= (+ (* (- 1) 1) (* (- 1) i ) (* 1 j ) ) 0) (>= (+ (* (- 1) 1) (* 1 i ) ) 0) (>= (+ (* (- 1) 1) (* 1 j ) ) 0) (>= (+ (* 1 c_12 ) (* 1 c_13 i ) (* 1 c_14 j ) (* 1 c_15 t ) ) 0) (>= (+ (* 1 c_16 ) (* 1 c_17 i ) (* 1 c_18 j ) (* 1 c_19 t ) ) 0) ) (>= (+ (* 1 c_16 ) (* 1 c_17 j ) (* 1 c_18 i ) (* 1 c_19 i ) ) 0) )))
(assert (forall ((t Real) (i Real) (j Real) ) (=> (and (>= (+ (* (- 1) 1) (* (- 1) c_4 ) (* (- 1) c_5 i ) (* (- 1) c_6 i ) (* (- 1) c_7 t ) ) 0) (>= (+ (* (- 1) 1) (* 1 i ) (* (- 1) j ) ) 0) (>= (+ (* 1 i ) (* (- 1) j ) ) 0) (>= (+ (* (- 1) 1) (* 1 i ) ) 0) (>= (+ (* (- 1) 1) (* 1 j ) ) 0) (>= (+ (* 1 c_4 ) (* 1 c_5 i ) (* 1 c_6 j ) (* 1 c_7 t ) ) 0) (>= (+ (* 1 c_10 j ) (* 1 c_11 t ) (* 1 c_8 ) (* 1 c_9 i ) ) 0) ) (>= (+ (* 1 c_12 ) (* 1 c_13 i ) (* 1 c_14 i ) (* 1 c_15 t ) ) 0) )))
(assert (forall ((t Real) (i Real) (j Real) ) (=> (and (>= (+ (* (- 1) 1) (* (- 1) c_4 ) (* (- 1) c_5 i ) (* (- 1) c_6 i ) (* (- 1) c_7 t ) ) 0) (>= (+ (* (- 1) 1) (* 1 i ) (* (- 1) j ) ) 0) (>= (+ (* 1 i ) (* (- 1) j ) ) 0) (>= (+ (* (- 1) 1) (* 1 i ) ) 0) (>= (+ (* (- 1) 1) (* 1 j ) ) 0) (>= (+ (* 1 c_4 ) (* 1 c_5 i ) (* 1 c_6 j ) (* 1 c_7 t ) ) 0) (>= (+ (* 1 c_10 j ) (* 1 c_11 t ) (* 1 c_8 ) (* 1 c_9 i ) ) 0) ) (>= (+ (* 1 c_16 ) (* 1 c_17 i ) (* 1 c_18 i ) (* 1 c_19 t ) ) 0) )))
(assert (forall ((t Real) (i Real) (j Real) ) (=> (and (>= (+ (* (- 1) 1) (* (- 1) c_10 i ) (* (- 1) c_11 t ) (* (- 1) c_8 ) (* (- 1) c_9 i ) ) 0) (>= (+ (* (- 1) 1) (* 1 i ) (* (- 1) j ) ) 0) (>= (+ (* 1 i ) (* (- 1) j ) ) 0) (>= (+ (* (- 1) 1) (* 1 i ) ) 0) (>= (+ (* (- 1) 1) (* 1 j ) ) 0) (>= (+ (* 1 c_4 ) (* 1 c_5 i ) (* 1 c_6 j ) (* 1 c_7 t ) ) 0) (>= (+ (* 1 c_10 j ) (* 1 c_11 t ) (* 1 c_8 ) (* 1 c_9 i ) ) 0) ) (>= (+ (* 1 c_12 ) (* 1 c_13 i ) (* 1 c_14 i ) (* 1 c_15 t ) ) 0) )))
(assert (forall ((t Real) (i Real) (j Real) ) (=> (and (>= (+ (* (- 1) 1) (* (- 1) c_10 i ) (* (- 1) c_11 t ) (* (- 1) c_8 ) (* (- 1) c_9 i ) ) 0) (>= (+ (* (- 1) 1) (* 1 i ) (* (- 1) j ) ) 0) (>= (+ (* 1 i ) (* (- 1) j ) ) 0) (>= (+ (* (- 1) 1) (* 1 i ) ) 0) (>= (+ (* (- 1) 1) (* 1 j ) ) 0) (>= (+ (* 1 c_4 ) (* 1 c_5 i ) (* 1 c_6 j ) (* 1 c_7 t ) ) 0) (>= (+ (* 1 c_10 j ) (* 1 c_11 t ) (* 1 c_8 ) (* 1 c_9 i ) ) 0) ) (>= (+ (* 1 c_16 ) (* 1 c_17 i ) (* 1 c_18 i ) (* 1 c_19 t ) ) 0) )))
(assert (forall ((t Real) (i Real) (j Real) ) (=> (and (>= (+ (* (- 1) 1) (* (- 1) c_4 ) (* (- 1) c_5 i ) (* (- 1) c_6 i ) (* (- 1) c_7 t ) ) 0) (>= (+ (* (- 1) 1) (* 1 i ) (* (- 1) j ) ) 0) (>= (+ (* 1 i ) (* (- 1) j ) ) 0) (>= (+ (* (- 1) 1) (* 1 i ) ) 0) (>= (+ (* (- 1) 1) (* 1 j ) ) 0) (>= (+ (* 1 c_12 ) (* 1 c_13 i ) (* 1 c_14 j ) (* 1 c_15 t ) ) 0) (>= (+ (* 1 c_16 ) (* 1 c_17 i ) (* 1 c_18 j ) (* 1 c_19 t ) ) 0) ) (>= (+ (* 1 c_12 ) (* 1 c_13 i ) (* 1 c_14 i ) (* 1 c_15 t ) ) 0) )))
(assert (forall ((t Real) (i Real) (j Real) ) (=> (and (>= (+ (* (- 1) 1) (* (- 1) c_4 ) (* (- 1) c_5 i ) (* (- 1) c_6 i ) (* (- 1) c_7 t ) ) 0) (>= (+ (* (- 1) 1) (* 1 i ) (* (- 1) j ) ) 0) (>= (+ (* 1 i ) (* (- 1) j ) ) 0) (>= (+ (* (- 1) 1) (* 1 i ) ) 0) (>= (+ (* (- 1) 1) (* 1 j ) ) 0) (>= (+ (* 1 c_12 ) (* 1 c_13 i ) (* 1 c_14 j ) (* 1 c_15 t ) ) 0) (>= (+ (* 1 c_16 ) (* 1 c_17 i ) (* 1 c_18 j ) (* 1 c_19 t ) ) 0) ) (>= (+ (* 1 c_16 ) (* 1 c_17 i ) (* 1 c_18 i ) (* 1 c_19 t ) ) 0) )))
(assert (forall ((t Real) (i Real) (j Real) ) (=> (and (>= (+ (* (- 1) 1) (* (- 1) c_10 i ) (* (- 1) c_11 t ) (* (- 1) c_8 ) (* (- 1) c_9 i ) ) 0) (>= (+ (* (- 1) 1) (* 1 i ) (* (- 1) j ) ) 0) (>= (+ (* 1 i ) (* (- 1) j ) ) 0) (>= (+ (* (- 1) 1) (* 1 i ) ) 0) (>= (+ (* (- 1) 1) (* 1 j ) ) 0) (>= (+ (* 1 c_12 ) (* 1 c_13 i ) (* 1 c_14 j ) (* 1 c_15 t ) ) 0) (>= (+ (* 1 c_16 ) (* 1 c_17 i ) (* 1 c_18 j ) (* 1 c_19 t ) ) 0) ) (>= (+ (* 1 c_12 ) (* 1 c_13 i ) (* 1 c_14 i ) (* 1 c_15 t ) ) 0) )))
(assert (forall ((t Real) (i Real) (j Real) ) (=> (and (>= (+ (* (- 1) 1) (* (- 1) c_10 i ) (* (- 1) c_11 t ) (* (- 1) c_8 ) (* (- 1) c_9 i ) ) 0) (>= (+ (* (- 1) 1) (* 1 i ) (* (- 1) j ) ) 0) (>= (+ (* 1 i ) (* (- 1) j ) ) 0) (>= (+ (* (- 1) 1) (* 1 i ) ) 0) (>= (+ (* (- 1) 1) (* 1 j ) ) 0) (>= (+ (* 1 c_12 ) (* 1 c_13 i ) (* 1 c_14 j ) (* 1 c_15 t ) ) 0) (>= (+ (* 1 c_16 ) (* 1 c_17 i ) (* 1 c_18 j ) (* 1 c_19 t ) ) 0) ) (>= (+ (* 1 c_16 ) (* 1 c_17 i ) (* 1 c_18 i ) (* 1 c_19 t ) ) 0) )))
(assert (forall ((t Real) (i Real) (j Real) ) (=> (and (>= (+ (* (- 1) 1) (* (- 1) c_4 ) (* 1 c_5 ) (* (- 1) c_5 i ) (* (- 1) c_6 j ) (* (- 1) c_7 t ) ) 0) (>= (+ (* (- 1) i ) (* 1 j ) ) 0) (>= (+ (* 1 i ) (* (- 1) j ) ) 0) (>= (+ (* (- 1) 1) (* 1 i ) ) 0) (>= (+ (* (- 1) 1) (* 1 j ) ) 0) (>= (+ (* 1 c_4 ) (* 1 c_5 i ) (* 1 c_6 j ) (* 1 c_7 t ) ) 0) (>= (+ (* 1 c_10 j ) (* 1 c_11 t ) (* 1 c_8 ) (* 1 c_9 i ) ) 0) ) (>= (+ (* 1 c_12 ) (* (- 1) c_13 ) (* 1 c_13 i ) (* 1 c_14 j ) (* 1 c_15 t ) ) 0) )))
(assert (forall ((t Real) (i Real) (j Real) ) (=> (and (>= (+ (* (- 1) 1) (* (- 1) c_4 ) (* 1 c_5 ) (* (- 1) c_5 i ) (* (- 1) c_6 j ) (* (- 1) c_7 t ) ) 0) (>= (+ (* (- 1) i ) (* 1 j ) ) 0) (>= (+ (* 1 i ) (* (- 1) j ) ) 0) (>= (+ (* (- 1) 1) (* 1 i ) ) 0) (>= (+ (* (- 1) 1) (* 1 j ) ) 0) (>= (+ (* 1 c_4 ) (* 1 c_5 i ) (* 1 c_6 j ) (* 1 c_7 t ) ) 0) (>= (+ (* 1 c_10 j ) (* 1 c_11 t ) (* 1 c_8 ) (* 1 c_9 i ) ) 0) ) (>= (+ (* 1 c_16 ) (* (- 1) c_17 ) (* 1 c_17 i ) (* 1 c_18 j ) (* 1 c_19 t ) ) 0) )))
(assert (forall ((t Real) (i Real) (j Real) ) (=> (and (>= (+ (* (- 1) 1) (* (- 1) c_10 j ) (* (- 1) c_11 t ) (* (- 1) c_8 ) (* 1 c_9 ) (* (- 1) c_9 i ) ) 0) (>= (+ (* (- 1) i ) (* 1 j ) ) 0) (>= (+ (* 1 i ) (* (- 1) j ) ) 0) (>= (+ (* (- 1) 1) (* 1 i ) ) 0) (>= (+ (* (- 1) 1) (* 1 j ) ) 0) (>= (+ (* 1 c_4 ) (* 1 c_5 i ) (* 1 c_6 j ) (* 1 c_7 t ) ) 0) (>= (+ (* 1 c_10 j ) (* 1 c_11 t ) (* 1 c_8 ) (* 1 c_9 i ) ) 0) ) (>= (+ (* 1 c_12 ) (* (- 1) c_13 ) (* 1 c_13 i ) (* 1 c_14 j ) (* 1 c_15 t ) ) 0) )))
(assert (forall ((t Real) (i Real) (j Real) ) (=> (and (>= (+ (* (- 1) 1) (* (- 1) c_10 j ) (* (- 1) c_11 t ) (* (- 1) c_8 ) (* 1 c_9 ) (* (- 1) c_9 i ) ) 0) (>= (+ (* (- 1) i ) (* 1 j ) ) 0) (>= (+ (* 1 i ) (* (- 1) j ) ) 0) (>= (+ (* (- 1) 1) (* 1 i ) ) 0) (>= (+ (* (- 1) 1) (* 1 j ) ) 0) (>= (+ (* 1 c_4 ) (* 1 c_5 i ) (* 1 c_6 j ) (* 1 c_7 t ) ) 0) (>= (+ (* 1 c_10 j ) (* 1 c_11 t ) (* 1 c_8 ) (* 1 c_9 i ) ) 0) ) (>= (+ (* 1 c_16 ) (* (- 1) c_17 ) (* 1 c_17 i ) (* 1 c_18 j ) (* 1 c_19 t ) ) 0) )))
(assert (forall ((t Real) (i Real) (j Real) ) (=> (and (>= (+ (* (- 1) 1) (* (- 1) c_4 ) (* 1 c_5 ) (* (- 1) c_5 i ) (* (- 1) c_6 j ) (* (- 1) c_7 t ) ) 0) (>= (+ (* (- 1) i ) (* 1 j ) ) 0) (>= (+ (* 1 i ) (* (- 1) j ) ) 0) (>= (+ (* (- 1) 1) (* 1 i ) ) 0) (>= (+ (* (- 1) 1) (* 1 j ) ) 0) (>= (+ (* 1 c_12 ) (* 1 c_13 i ) (* 1 c_14 j ) (* 1 c_15 t ) ) 0) (>= (+ (* 1 c_16 ) (* 1 c_17 i ) (* 1 c_18 j ) (* 1 c_19 t ) ) 0) ) (>= (+ (* 1 c_12 ) (* (- 1) c_13 ) (* 1 c_13 i ) (* 1 c_14 j ) (* 1 c_15 t ) ) 0) )))
(assert (forall ((t Real) (i Real) (j Real) ) (=> (and (>= (+ (* (- 1) 1) (* (- 1) c_4 ) (* 1 c_5 ) (* (- 1) c_5 i ) (* (- 1) c_6 j ) (* (- 1) c_7 t ) ) 0) (>= (+ (* (- 1) i ) (* 1 j ) ) 0) (>= (+ (* 1 i ) (* (- 1) j ) ) 0) (>= (+ (* (- 1) 1) (* 1 i ) ) 0) (>= (+ (* (- 1) 1) (* 1 j ) ) 0) (>= (+ (* 1 c_12 ) (* 1 c_13 i ) (* 1 c_14 j ) (* 1 c_15 t ) ) 0) (>= (+ (* 1 c_16 ) (* 1 c_17 i ) (* 1 c_18 j ) (* 1 c_19 t ) ) 0) ) (>= (+ (* 1 c_16 ) (* (- 1) c_17 ) (* 1 c_17 i ) (* 1 c_18 j ) (* 1 c_19 t ) ) 0) )))
(assert (forall ((t Real) (i Real) (j Real) ) (=> (and (>= (+ (* (- 1) 1) (* (- 1) c_10 j ) (* (- 1) c_11 t ) (* (- 1) c_8 ) (* 1 c_9 ) (* (- 1) c_9 i ) ) 0) (>= (+ (* (- 1) i ) (* 1 j ) ) 0) (>= (+ (* 1 i ) (* (- 1) j ) ) 0) (>= (+ (* (- 1) 1) (* 1 i ) ) 0) (>= (+ (* (- 1) 1) (* 1 j ) ) 0) (>= (+ (* 1 c_12 ) (* 1 c_13 i ) (* 1 c_14 j ) (* 1 c_15 t ) ) 0) (>= (+ (* 1 c_16 ) (* 1 c_17 i ) (* 1 c_18 j ) (* 1 c_19 t ) ) 0) ) (>= (+ (* 1 c_12 ) (* (- 1) c_13 ) (* 1 c_13 i ) (* 1 c_14 j ) (* 1 c_15 t ) ) 0) )))
(assert (forall ((t Real) (i Real) (j Real) ) (=> (and (>= (+ (* (- 1) 1) (* (- 1) c_10 j ) (* (- 1) c_11 t ) (* (- 1) c_8 ) (* 1 c_9 ) (* (- 1) c_9 i ) ) 0) (>= (+ (* (- 1) i ) (* 1 j ) ) 0) (>= (+ (* 1 i ) (* (- 1) j ) ) 0) (>= (+ (* (- 1) 1) (* 1 i ) ) 0) (>= (+ (* (- 1) 1) (* 1 j ) ) 0) (>= (+ (* 1 c_12 ) (* 1 c_13 i ) (* 1 c_14 j ) (* 1 c_15 t ) ) 0) (>= (+ (* 1 c_16 ) (* 1 c_17 i ) (* 1 c_18 j ) (* 1 c_19 t ) ) 0) ) (>= (+ (* 1 c_16 ) (* (- 1) c_17 ) (* 1 c_17 i ) (* 1 c_18 j ) (* 1 c_19 t ) ) 0) )))
(assert (forall ((t Real) (i Real) (j Real) ) (=> (and (>= (* (- 1) i ) 0) (>= (+ (* 1 c_4 ) (* 1 c_5 i ) (* 1 c_6 j ) (* 1 c_7 t ) ) 0) (>= (+ (* 1 c_10 j ) (* 1 c_11 t ) (* 1 c_8 ) (* 1 c_9 i ) ) 0) ) (>= (* 1 c_0 ) 0) )))
(assert (forall ((t Real) (i Real) (j Real) ) (=> (and (>= (* (- 1) i ) 0) (>= (+ (* 1 c_12 ) (* 1 c_13 i ) (* 1 c_14 j ) (* 1 c_15 t ) ) 0) (>= (+ (* 1 c_16 ) (* 1 c_17 i ) (* 1 c_18 j ) (* 1 c_19 t ) ) 0) ) (>= (* 1 c_0 ) 0) )))
(assert (forall ((t Real) (i Real) (j Real) ) (=> (and (>= (* (- 1) j ) 0) (>= (+ (* 1 c_4 ) (* 1 c_5 i ) (* 1 c_6 j ) (* 1 c_7 t ) ) 0) (>= (+ (* 1 c_10 j ) (* 1 c_11 t ) (* 1 c_8 ) (* 1 c_9 i ) ) 0) ) (>= (* 1 c_0 ) 0) )))
(assert (forall ((t Real) (i Real) (j Real) ) (=> (and (>= (* (- 1) j ) 0) (>= (+ (* 1 c_12 ) (* 1 c_13 i ) (* 1 c_14 j ) (* 1 c_15 t ) ) 0) (>= (+ (* 1 c_16 ) (* 1 c_17 i ) (* 1 c_18 j ) (* 1 c_19 t ) ) 0) ) (>= (* 1 c_0 ) 0) )))
(check-sat)
(get-model)

